NAME : netgen22-5_30
COMMENT : Generated using the function generateClusteredNetwork from the R-package netgen (Bossek,2015) - Number of clusters: 5
TYPE : TSP
DIMENSION : 22
EDGE_WEIGHT_TYPE : EUC_2D
NODE_COORD_SECTION
1 62.4418854688 67.9393186862
2 59.2267313889 61.2677344839
3 62.6685846505 64.8867274151
4 63.8880842691 61.269672061
5 19.980486649 89.6586291218
6 25.1075745641 95.6115176521
7 17.0078338978 96.7477153861
8 17.7101863359 97.3416398214
9 46.9465418603 3.6286678195
10 60.5872754151 2.74101519
11 47.2352757613 7.579582282
12 53.1578433506 0.4172798388
13 44.7790810467 15.0432062969
14 36.2044784831 2.0326469023
15 87.9354033137 24.9928204852
16 88.5048329784 48.8430800277
17 76.6944001543 17.2317843566
18 91.4616345756 33.9496878578
19 1.5704269961 51.5370770434
20 12.1764643873 44.3351283942
21 17.2054964935 45.2838409291
22 5.638016054 51.4211698682
EOF
